c *********************************
c * Circuit generated by BenCGen
c *
c * RippleCarryAdder_59_59_59_InOutT
c *
c * Ports with 1 gate(s): 1
c * Ports with 2 gate(s): 296
c * Total gates: 297
c *********************************
p cnf 415 1008
1 180 0
-1 -180 0
1 -179 0
180 -179 0
-1 -180 179 0
1 60 -182 0
-1 60 182 0
1 -60 182 0
-1 -60 -182 0
182 179 -119 0
-182 179 119 0
182 -179 119 0
-182 -179 -119 0
179 -183 0
182 -183 0
-179 -182 183 0
60 -184 0
1 -184 0
-60 -1 184 0
-183 181 0
-184 181 0
183 184 -181 0
2 61 -186 0
-2 61 186 0
2 -61 186 0
-2 -61 -186 0
186 181 -120 0
-186 181 120 0
186 -181 120 0
-186 -181 -120 0
181 -187 0
186 -187 0
-181 -186 187 0
61 -188 0
2 -188 0
-61 -2 188 0
-187 185 0
-188 185 0
187 188 -185 0
3 62 -190 0
-3 62 190 0
3 -62 190 0
-3 -62 -190 0
190 185 -121 0
-190 185 121 0
190 -185 121 0
-190 -185 -121 0
185 -191 0
190 -191 0
-185 -190 191 0
62 -192 0
3 -192 0
-62 -3 192 0
-191 189 0
-192 189 0
191 192 -189 0
4 63 -194 0
-4 63 194 0
4 -63 194 0
-4 -63 -194 0
194 189 -122 0
-194 189 122 0
194 -189 122 0
-194 -189 -122 0
189 -195 0
194 -195 0
-189 -194 195 0
63 -196 0
4 -196 0
-63 -4 196 0
-195 193 0
-196 193 0
195 196 -193 0
5 64 -198 0
-5 64 198 0
5 -64 198 0
-5 -64 -198 0
198 193 -123 0
-198 193 123 0
198 -193 123 0
-198 -193 -123 0
193 -199 0
198 -199 0
-193 -198 199 0
64 -200 0
5 -200 0
-64 -5 200 0
-199 197 0
-200 197 0
199 200 -197 0
6 65 -202 0
-6 65 202 0
6 -65 202 0
-6 -65 -202 0
202 197 -124 0
-202 197 124 0
202 -197 124 0
-202 -197 -124 0
197 -203 0
202 -203 0
-197 -202 203 0
65 -204 0
6 -204 0
-65 -6 204 0
-203 201 0
-204 201 0
203 204 -201 0
7 66 -206 0
-7 66 206 0
7 -66 206 0
-7 -66 -206 0
206 201 -125 0
-206 201 125 0
206 -201 125 0
-206 -201 -125 0
201 -207 0
206 -207 0
-201 -206 207 0
66 -208 0
7 -208 0
-66 -7 208 0
-207 205 0
-208 205 0
207 208 -205 0
8 67 -210 0
-8 67 210 0
8 -67 210 0
-8 -67 -210 0
210 205 -126 0
-210 205 126 0
210 -205 126 0
-210 -205 -126 0
205 -211 0
210 -211 0
-205 -210 211 0
67 -212 0
8 -212 0
-67 -8 212 0
-211 209 0
-212 209 0
211 212 -209 0
9 68 -214 0
-9 68 214 0
9 -68 214 0
-9 -68 -214 0
214 209 -127 0
-214 209 127 0
214 -209 127 0
-214 -209 -127 0
209 -215 0
214 -215 0
-209 -214 215 0
68 -216 0
9 -216 0
-68 -9 216 0
-215 213 0
-216 213 0
215 216 -213 0
10 69 -218 0
-10 69 218 0
10 -69 218 0
-10 -69 -218 0
218 213 -128 0
-218 213 128 0
218 -213 128 0
-218 -213 -128 0
213 -219 0
218 -219 0
-213 -218 219 0
69 -220 0
10 -220 0
-69 -10 220 0
-219 217 0
-220 217 0
219 220 -217 0
11 70 -222 0
-11 70 222 0
11 -70 222 0
-11 -70 -222 0
222 217 -129 0
-222 217 129 0
222 -217 129 0
-222 -217 -129 0
217 -223 0
222 -223 0
-217 -222 223 0
70 -224 0
11 -224 0
-70 -11 224 0
-223 221 0
-224 221 0
223 224 -221 0
12 71 -226 0
-12 71 226 0
12 -71 226 0
-12 -71 -226 0
226 221 -130 0
-226 221 130 0
226 -221 130 0
-226 -221 -130 0
221 -227 0
226 -227 0
-221 -226 227 0
71 -228 0
12 -228 0
-71 -12 228 0
-227 225 0
-228 225 0
227 228 -225 0
13 72 -230 0
-13 72 230 0
13 -72 230 0
-13 -72 -230 0
230 225 -131 0
-230 225 131 0
230 -225 131 0
-230 -225 -131 0
225 -231 0
230 -231 0
-225 -230 231 0
72 -232 0
13 -232 0
-72 -13 232 0
-231 229 0
-232 229 0
231 232 -229 0
14 73 -234 0
-14 73 234 0
14 -73 234 0
-14 -73 -234 0
234 229 -132 0
-234 229 132 0
234 -229 132 0
-234 -229 -132 0
229 -235 0
234 -235 0
-229 -234 235 0
73 -236 0
14 -236 0
-73 -14 236 0
-235 233 0
-236 233 0
235 236 -233 0
15 74 -238 0
-15 74 238 0
15 -74 238 0
-15 -74 -238 0
238 233 -133 0
-238 233 133 0
238 -233 133 0
-238 -233 -133 0
233 -239 0
238 -239 0
-233 -238 239 0
74 -240 0
15 -240 0
-74 -15 240 0
-239 237 0
-240 237 0
239 240 -237 0
16 75 -242 0
-16 75 242 0
16 -75 242 0
-16 -75 -242 0
242 237 -134 0
-242 237 134 0
242 -237 134 0
-242 -237 -134 0
237 -243 0
242 -243 0
-237 -242 243 0
75 -244 0
16 -244 0
-75 -16 244 0
-243 241 0
-244 241 0
243 244 -241 0
17 76 -246 0
-17 76 246 0
17 -76 246 0
-17 -76 -246 0
246 241 -135 0
-246 241 135 0
246 -241 135 0
-246 -241 -135 0
241 -247 0
246 -247 0
-241 -246 247 0
76 -248 0
17 -248 0
-76 -17 248 0
-247 245 0
-248 245 0
247 248 -245 0
18 77 -250 0
-18 77 250 0
18 -77 250 0
-18 -77 -250 0
250 245 -136 0
-250 245 136 0
250 -245 136 0
-250 -245 -136 0
245 -251 0
250 -251 0
-245 -250 251 0
77 -252 0
18 -252 0
-77 -18 252 0
-251 249 0
-252 249 0
251 252 -249 0
19 78 -254 0
-19 78 254 0
19 -78 254 0
-19 -78 -254 0
254 249 -137 0
-254 249 137 0
254 -249 137 0
-254 -249 -137 0
249 -255 0
254 -255 0
-249 -254 255 0
78 -256 0
19 -256 0
-78 -19 256 0
-255 253 0
-256 253 0
255 256 -253 0
20 79 -258 0
-20 79 258 0
20 -79 258 0
-20 -79 -258 0
258 253 -138 0
-258 253 138 0
258 -253 138 0
-258 -253 -138 0
253 -259 0
258 -259 0
-253 -258 259 0
79 -260 0
20 -260 0
-79 -20 260 0
-259 257 0
-260 257 0
259 260 -257 0
21 80 -262 0
-21 80 262 0
21 -80 262 0
-21 -80 -262 0
262 257 -139 0
-262 257 139 0
262 -257 139 0
-262 -257 -139 0
257 -263 0
262 -263 0
-257 -262 263 0
80 -264 0
21 -264 0
-80 -21 264 0
-263 261 0
-264 261 0
263 264 -261 0
22 81 -266 0
-22 81 266 0
22 -81 266 0
-22 -81 -266 0
266 261 -140 0
-266 261 140 0
266 -261 140 0
-266 -261 -140 0
261 -267 0
266 -267 0
-261 -266 267 0
81 -268 0
22 -268 0
-81 -22 268 0
-267 265 0
-268 265 0
267 268 -265 0
23 82 -270 0
-23 82 270 0
23 -82 270 0
-23 -82 -270 0
270 265 -141 0
-270 265 141 0
270 -265 141 0
-270 -265 -141 0
265 -271 0
270 -271 0
-265 -270 271 0
82 -272 0
23 -272 0
-82 -23 272 0
-271 269 0
-272 269 0
271 272 -269 0
24 83 -274 0
-24 83 274 0
24 -83 274 0
-24 -83 -274 0
274 269 -142 0
-274 269 142 0
274 -269 142 0
-274 -269 -142 0
269 -275 0
274 -275 0
-269 -274 275 0
83 -276 0
24 -276 0
-83 -24 276 0
-275 273 0
-276 273 0
275 276 -273 0
25 84 -278 0
-25 84 278 0
25 -84 278 0
-25 -84 -278 0
278 273 -143 0
-278 273 143 0
278 -273 143 0
-278 -273 -143 0
273 -279 0
278 -279 0
-273 -278 279 0
84 -280 0
25 -280 0
-84 -25 280 0
-279 277 0
-280 277 0
279 280 -277 0
26 85 -282 0
-26 85 282 0
26 -85 282 0
-26 -85 -282 0
282 277 -144 0
-282 277 144 0
282 -277 144 0
-282 -277 -144 0
277 -283 0
282 -283 0
-277 -282 283 0
85 -284 0
26 -284 0
-85 -26 284 0
-283 281 0
-284 281 0
283 284 -281 0
27 86 -286 0
-27 86 286 0
27 -86 286 0
-27 -86 -286 0
286 281 -145 0
-286 281 145 0
286 -281 145 0
-286 -281 -145 0
281 -287 0
286 -287 0
-281 -286 287 0
86 -288 0
27 -288 0
-86 -27 288 0
-287 285 0
-288 285 0
287 288 -285 0
28 87 -290 0
-28 87 290 0
28 -87 290 0
-28 -87 -290 0
290 285 -146 0
-290 285 146 0
290 -285 146 0
-290 -285 -146 0
285 -291 0
290 -291 0
-285 -290 291 0
87 -292 0
28 -292 0
-87 -28 292 0
-291 289 0
-292 289 0
291 292 -289 0
29 88 -294 0
-29 88 294 0
29 -88 294 0
-29 -88 -294 0
294 289 -147 0
-294 289 147 0
294 -289 147 0
-294 -289 -147 0
289 -295 0
294 -295 0
-289 -294 295 0
88 -296 0
29 -296 0
-88 -29 296 0
-295 293 0
-296 293 0
295 296 -293 0
30 89 -298 0
-30 89 298 0
30 -89 298 0
-30 -89 -298 0
298 293 -148 0
-298 293 148 0
298 -293 148 0
-298 -293 -148 0
293 -299 0
298 -299 0
-293 -298 299 0
89 -300 0
30 -300 0
-89 -30 300 0
-299 297 0
-300 297 0
299 300 -297 0
31 90 -302 0
-31 90 302 0
31 -90 302 0
-31 -90 -302 0
302 297 -149 0
-302 297 149 0
302 -297 149 0
-302 -297 -149 0
297 -303 0
302 -303 0
-297 -302 303 0
90 -304 0
31 -304 0
-90 -31 304 0
-303 301 0
-304 301 0
303 304 -301 0
32 91 -306 0
-32 91 306 0
32 -91 306 0
-32 -91 -306 0
306 301 -150 0
-306 301 150 0
306 -301 150 0
-306 -301 -150 0
301 -307 0
306 -307 0
-301 -306 307 0
91 -308 0
32 -308 0
-91 -32 308 0
-307 305 0
-308 305 0
307 308 -305 0
33 92 -310 0
-33 92 310 0
33 -92 310 0
-33 -92 -310 0
310 305 -151 0
-310 305 151 0
310 -305 151 0
-310 -305 -151 0
305 -311 0
310 -311 0
-305 -310 311 0
92 -312 0
33 -312 0
-92 -33 312 0
-311 309 0
-312 309 0
311 312 -309 0
34 93 -314 0
-34 93 314 0
34 -93 314 0
-34 -93 -314 0
314 309 -152 0
-314 309 152 0
314 -309 152 0
-314 -309 -152 0
309 -315 0
314 -315 0
-309 -314 315 0
93 -316 0
34 -316 0
-93 -34 316 0
-315 313 0
-316 313 0
315 316 -313 0
35 94 -318 0
-35 94 318 0
35 -94 318 0
-35 -94 -318 0
318 313 -153 0
-318 313 153 0
318 -313 153 0
-318 -313 -153 0
313 -319 0
318 -319 0
-313 -318 319 0
94 -320 0
35 -320 0
-94 -35 320 0
-319 317 0
-320 317 0
319 320 -317 0
36 95 -322 0
-36 95 322 0
36 -95 322 0
-36 -95 -322 0
322 317 -154 0
-322 317 154 0
322 -317 154 0
-322 -317 -154 0
317 -323 0
322 -323 0
-317 -322 323 0
95 -324 0
36 -324 0
-95 -36 324 0
-323 321 0
-324 321 0
323 324 -321 0
37 96 -326 0
-37 96 326 0
37 -96 326 0
-37 -96 -326 0
326 321 -155 0
-326 321 155 0
326 -321 155 0
-326 -321 -155 0
321 -327 0
326 -327 0
-321 -326 327 0
96 -328 0
37 -328 0
-96 -37 328 0
-327 325 0
-328 325 0
327 328 -325 0
38 97 -330 0
-38 97 330 0
38 -97 330 0
-38 -97 -330 0
330 325 -156 0
-330 325 156 0
330 -325 156 0
-330 -325 -156 0
325 -331 0
330 -331 0
-325 -330 331 0
97 -332 0
38 -332 0
-97 -38 332 0
-331 329 0
-332 329 0
331 332 -329 0
39 98 -334 0
-39 98 334 0
39 -98 334 0
-39 -98 -334 0
334 329 -157 0
-334 329 157 0
334 -329 157 0
-334 -329 -157 0
329 -335 0
334 -335 0
-329 -334 335 0
98 -336 0
39 -336 0
-98 -39 336 0
-335 333 0
-336 333 0
335 336 -333 0
40 99 -338 0
-40 99 338 0
40 -99 338 0
-40 -99 -338 0
338 333 -158 0
-338 333 158 0
338 -333 158 0
-338 -333 -158 0
333 -339 0
338 -339 0
-333 -338 339 0
99 -340 0
40 -340 0
-99 -40 340 0
-339 337 0
-340 337 0
339 340 -337 0
41 100 -342 0
-41 100 342 0
41 -100 342 0
-41 -100 -342 0
342 337 -159 0
-342 337 159 0
342 -337 159 0
-342 -337 -159 0
337 -343 0
342 -343 0
-337 -342 343 0
100 -344 0
41 -344 0
-100 -41 344 0
-343 341 0
-344 341 0
343 344 -341 0
42 101 -346 0
-42 101 346 0
42 -101 346 0
-42 -101 -346 0
346 341 -160 0
-346 341 160 0
346 -341 160 0
-346 -341 -160 0
341 -347 0
346 -347 0
-341 -346 347 0
101 -348 0
42 -348 0
-101 -42 348 0
-347 345 0
-348 345 0
347 348 -345 0
43 102 -350 0
-43 102 350 0
43 -102 350 0
-43 -102 -350 0
350 345 -161 0
-350 345 161 0
350 -345 161 0
-350 -345 -161 0
345 -351 0
350 -351 0
-345 -350 351 0
102 -352 0
43 -352 0
-102 -43 352 0
-351 349 0
-352 349 0
351 352 -349 0
44 103 -354 0
-44 103 354 0
44 -103 354 0
-44 -103 -354 0
354 349 -162 0
-354 349 162 0
354 -349 162 0
-354 -349 -162 0
349 -355 0
354 -355 0
-349 -354 355 0
103 -356 0
44 -356 0
-103 -44 356 0
-355 353 0
-356 353 0
355 356 -353 0
45 104 -358 0
-45 104 358 0
45 -104 358 0
-45 -104 -358 0
358 353 -163 0
-358 353 163 0
358 -353 163 0
-358 -353 -163 0
353 -359 0
358 -359 0
-353 -358 359 0
104 -360 0
45 -360 0
-104 -45 360 0
-359 357 0
-360 357 0
359 360 -357 0
46 105 -362 0
-46 105 362 0
46 -105 362 0
-46 -105 -362 0
362 357 -164 0
-362 357 164 0
362 -357 164 0
-362 -357 -164 0
357 -363 0
362 -363 0
-357 -362 363 0
105 -364 0
46 -364 0
-105 -46 364 0
-363 361 0
-364 361 0
363 364 -361 0
47 106 -366 0
-47 106 366 0
47 -106 366 0
-47 -106 -366 0
366 361 -165 0
-366 361 165 0
366 -361 165 0
-366 -361 -165 0
361 -367 0
366 -367 0
-361 -366 367 0
106 -368 0
47 -368 0
-106 -47 368 0
-367 365 0
-368 365 0
367 368 -365 0
48 107 -370 0
-48 107 370 0
48 -107 370 0
-48 -107 -370 0
370 365 -166 0
-370 365 166 0
370 -365 166 0
-370 -365 -166 0
365 -371 0
370 -371 0
-365 -370 371 0
107 -372 0
48 -372 0
-107 -48 372 0
-371 369 0
-372 369 0
371 372 -369 0
49 108 -374 0
-49 108 374 0
49 -108 374 0
-49 -108 -374 0
374 369 -167 0
-374 369 167 0
374 -369 167 0
-374 -369 -167 0
369 -375 0
374 -375 0
-369 -374 375 0
108 -376 0
49 -376 0
-108 -49 376 0
-375 373 0
-376 373 0
375 376 -373 0
50 109 -378 0
-50 109 378 0
50 -109 378 0
-50 -109 -378 0
378 373 -168 0
-378 373 168 0
378 -373 168 0
-378 -373 -168 0
373 -379 0
378 -379 0
-373 -378 379 0
109 -380 0
50 -380 0
-109 -50 380 0
-379 377 0
-380 377 0
379 380 -377 0
51 110 -382 0
-51 110 382 0
51 -110 382 0
-51 -110 -382 0
382 377 -169 0
-382 377 169 0
382 -377 169 0
-382 -377 -169 0
377 -383 0
382 -383 0
-377 -382 383 0
110 -384 0
51 -384 0
-110 -51 384 0
-383 381 0
-384 381 0
383 384 -381 0
52 111 -386 0
-52 111 386 0
52 -111 386 0
-52 -111 -386 0
386 381 -170 0
-386 381 170 0
386 -381 170 0
-386 -381 -170 0
381 -387 0
386 -387 0
-381 -386 387 0
111 -388 0
52 -388 0
-111 -52 388 0
-387 385 0
-388 385 0
387 388 -385 0
53 112 -390 0
-53 112 390 0
53 -112 390 0
-53 -112 -390 0
390 385 -171 0
-390 385 171 0
390 -385 171 0
-390 -385 -171 0
385 -391 0
390 -391 0
-385 -390 391 0
112 -392 0
53 -392 0
-112 -53 392 0
-391 389 0
-392 389 0
391 392 -389 0
54 113 -394 0
-54 113 394 0
54 -113 394 0
-54 -113 -394 0
394 389 -172 0
-394 389 172 0
394 -389 172 0
-394 -389 -172 0
389 -395 0
394 -395 0
-389 -394 395 0
113 -396 0
54 -396 0
-113 -54 396 0
-395 393 0
-396 393 0
395 396 -393 0
55 114 -398 0
-55 114 398 0
55 -114 398 0
-55 -114 -398 0
398 393 -173 0
-398 393 173 0
398 -393 173 0
-398 -393 -173 0
393 -399 0
398 -399 0
-393 -398 399 0
114 -400 0
55 -400 0
-114 -55 400 0
-399 397 0
-400 397 0
399 400 -397 0
56 115 -402 0
-56 115 402 0
56 -115 402 0
-56 -115 -402 0
402 397 -174 0
-402 397 174 0
402 -397 174 0
-402 -397 -174 0
397 -403 0
402 -403 0
-397 -402 403 0
115 -404 0
56 -404 0
-115 -56 404 0
-403 401 0
-404 401 0
403 404 -401 0
57 116 -406 0
-57 116 406 0
57 -116 406 0
-57 -116 -406 0
406 401 -175 0
-406 401 175 0
406 -401 175 0
-406 -401 -175 0
401 -407 0
406 -407 0
-401 -406 407 0
116 -408 0
57 -408 0
-116 -57 408 0
-407 405 0
-408 405 0
407 408 -405 0
58 117 -410 0
-58 117 410 0
58 -117 410 0
-58 -117 -410 0
410 405 -176 0
-410 405 176 0
410 -405 176 0
-410 -405 -176 0
405 -411 0
410 -411 0
-405 -410 411 0
117 -412 0
58 -412 0
-117 -58 412 0
-411 409 0
-412 409 0
411 412 -409 0
59 118 -413 0
-59 118 413 0
59 -118 413 0
-59 -118 -413 0
413 409 -177 0
-413 409 177 0
413 -409 177 0
-413 -409 -177 0
409 -414 0
413 -414 0
-409 -413 414 0
118 -415 0
59 -415 0
-118 -59 415 0
-414 178 0
-415 178 0
414 415 -178 0
